p cnf 10 50
6 10 -4 0
-1 7 -5 0
-10 -1 -7 0
-1 -5 6 0
-5 -3 10 0
-7 -1 -6 0
8 2 -5 0
-10 -4 9 0
-2 6 8 0
-6 1 -2 0
-2 -4 6 0
1 8 -5 0
-1 -8 10 0
7 4 -5 0
5 10 -9 0
-10 -2 6 0
-2 4 -1 0
9 -3 5 0
4 -3 1 0
4 6 9 0
-8 6 9 0
2 9 -8 0
8 9 3 0
-1 9 -5 0
3 5 4 0
2 -5 -9 0
-4 10 -6 0
-2 -3 -7 0
-5 1 4 0
-1 -6 -9 0
-8 10 1 0
-3 -5 1 0
-3 -5 7 0
-5 -4 -1 0
-8 -9 -10 0
-10 6 -7 0
1 10 -7 0
9 -3 6 0
-8 -2 -10 0
1 9 -4 0
10 -9 -8 0
1 -8 -10 0
-8 2 -3 0
-4 5 9 0
-4 -9 5 0
9 10 -7 0
6 -7 -8 0
-4 -8 -7 0
-9 4 -6 0
7 10 -6 0
